outputs/r206.txt.out
filename: R206
Vehicles: 25, Capacity: 1000
Total customers : 101
No of routes: 16
Route #1: 27 28 53 58 13 95 94
Route #2: 97 87 57 2
Route #3: 15 43
Route #4: 42 92 59 99 5 84 17 83 60
Route #5: 8 82 7 88 31 70
Route #6: 30 20 66
Route #7: 19 11 62 10 90 32
Route #8: 63 48 47 36 49
Route #9: 64 45 46 18 85 93 96 52
Route #10: 61 16 44 14 38 86 91 100 37 98
Route #11: 6 89
Route #12: 40 21 73 72 74 75 56 4
Route #13: 39 67 23 41 22 26 12 80 68 77
Route #14: 69 1 50 34 78 79 3 76
Route #15: 33 81 9 71 35
Route #16: 51 65 29 24 25 55 54
Cost 1454
